
%FILE DATA:	Soccer Computational Problem for MiniZinc Models	%
%AUTHOR:	Jack Wall	%
%CONTACT:  	116397063@umail.ucc.ie			%
%LAST UPDATE:	03/02/2020, 19:05:33						%
%DESCRIPTION: 	96 games played with 36 games left				%


n=12; %number of teams

%Games to play
games=[|3,12|7,12|1,2|4,1|2,3|5,7|9,11|9,6|10,7|12,2|6,7|4,12|6,5|11,6|8,12|6,3|10,6|3,2|12,5|11,5|5,6|3,10|3,6|6,10|2,11|4,5|10,11|10,5|5,9|3,7|1,3|10,2|12,1|3,8|8,1|4,8|];

%Initial points
iPoints=[16,27,25,33,23,13,23,20,21,23,25,12];

%POSITION CONSTRAINTS
% [|teamID, operator, position|...]
% operators index:
%  1 for =  operator
%  2 for >  operator
%  3 for >= operator
%  4 for <  operator
%  5 for <= operator
positionConstraints=[|2,3,1|5,2,1|];